LAMMPS data file via write_data, version 22 Jul 2025, timestep = 121, units = metal

704 atoms
3 atom types

0.021026514262161313 13.406373485737841 xlo xhi
0.04110187604783145 26.206298123952163 ylo yhi
0.03221292238940468 20.538757077610608 zlo zhi
0 -12.090851914057763 0 xy xz yz

Masses

1 10.81
2 1.008
3 22.99

Atoms # atomic

297 1 0.5196967054941987 3.824477057633623 1.6278829839372344 0 0 0
601 2 0.005250936024850963 0.2955360450714444 1.368787804470388 0 0 0
617 2 -0.27342279051756246 3.0665971202989364 1.1330087721033113 0 0 0
73 1 1.2236554106655817 3.720053238786819 3.173673244558519 0 0 0
137 1 2.894659314890522 4.400783026162034 3.207820438704159 0 0 0
233 1 2.21885108774531 3.851089974545317 1.6333526351029406 0 0 0
345 2 2.617338244612604 1.0476517252086006 2.7787202783644256 0 0 0
393 2 0.8645914122839669 2.774432893202707 3.8287046069927415 0 0 0
457 2 3.808610411388984 3.759134878627825 3.675227271212783 0 0 0
553 2 2.8539552974470266 3.032080406598347 1.0154139008298115 0 0 0
77 1 7.916328689726695 3.7200531506812027 3.1736732134385752 0 0 0
237 1 8.911524553903917 3.8510899862973598 1.6333527025696417 0 0 0
301 1 7.212370173501731 3.824476929354414 1.6278830821134695 0 0 0
397 2 7.557264765687934 2.7744329808354404 3.828704716117198 0 0 0
605 2 6.697924240367088 0.2955361103848481 1.368787895684244 0 0 0
621 2 6.419250683470201 3.0665972187830914 1.1330086803241575 0 0 0
141 1 9.587332743478893 4.400783105279144 3.207820557672232 0 0 0
349 2 9.310011756893262 1.0476515861837736 2.7787203690838163 0 0 0
461 2 10.501283837153307 3.7591350860716655 3.675227510842404 0 0 0
557 2 9.54662874132935 3.032080425111408 1.0154141865785777 0 0 0
105 1 0.2239010101830288 5.161376860203471 2.6434016222077585 0 0 0
425 2 -0.9239333532303171 5.4665457491737675 2.8435831980749042 0 0 0
9 1 1.46741054352262 6.444124239005473 2.478492955176371 0 0 0
41 1 1.4813264310629477 5.333788639995846 3.939098155053922 0 0 0
169 1 2.87863006584856 5.518402849082505 1.7566618242714258 0 0 0
201 1 1.225195932058341 5.2911342525541 1.103765200527987 0 0 0
265 1 2.888750070343892 6.091363940762124 3.350100267436921 0 0 0
329 2 1.0946749456765998 7.588950644390999 2.412341255332308 0 0 0
489 2 3.7602772318353352 5.9261651009669185 1.0470281780866166 0 0 0
521 2 -11.09499195562037 5.689388619409499 20.488300962461167 0 0 -1
585 2 3.706762511145871 6.836834962073157 3.8222736018587793 0 0 0
13 1 8.160083838172376 6.444124281744092 2.4784929629058228 0 0 0
45 1 8.173999682218533 5.333788591907259 3.939098146050277 0 0 0
109 1 6.916574401006406 5.161376792592642 2.643401601274392 0 0 0
205 1 7.91786944084927 5.291134168854156 1.103765222597247 0 0 0
333 2 7.78734830630721 7.588950585976362 2.412341248277358 0 0 0
429 2 5.7687400532424356 5.466545568413017 2.8435830363058354 0 0 0
525 2 -4.402318415270947 5.689388543889905 20.48830089153518 0 0 -1
681 3 -6.615425057547854 4.908614410343476 20.390717973968982 0 0 -1
173 1 9.571303490519336 5.51840270004591 1.756661815222258 0 0 0
269 1 9.581423403957917 6.091364081379943 3.3501003632964146 0 0 0
493 2 10.452950670089336 5.926165232246935 1.0470282834933922 0 0 0
589 2 10.399435738014624 6.836835010781664 3.822273767195632 0 0 0
685 3 0.07724836168536389 4.908614383243802 20.390718125565094 0 0 -1
473 2 -0.09659696225227052 10.30043392667027 1.5158339832058423 0 0 0
25 1 2.2446028866693855 12.985423432237765 2.712568807828142 0 0 0
57 1 2.2306870946733297 11.875087725842915 1.2519635882943336 0 0 0
89 1 2.4883581470045226 10.261352362147232 2.017388406397655 0 0 0
121 1 3.488112609241415 11.702676060067546 2.5476601489104205 0 0 0
153 1 0.8173541481124555 10.942082084181502 1.9832409963074964 0 0 0
185 1 0.8333831500701767 12.059701812461105 3.4343998178339747 0 0 0
217 1 2.4868172420322368 11.832433323718366 4.087296662529709 0 0 0
249 1 1.4931621514193498 10.392388990967843 3.5577089747855513 0 0 0
281 1 0.8232634568910802 12.632662988111726 1.8409612942961386 0 0 0
313 1 3.192316596478226 10.365776115086618 3.563178760348404 0 0 0
377 2 2.5609890569677747 12.047611052644722 0.09948063121727006 0 0 0
409 2 2.847422293221219 9.315732216464845 1.3623569766839654 0 0 0
441 2 4.635946613486322 12.00784494471742 2.3474787765181016 0 0 0
633 2 3.9854360875731185 9.607896364283743 4.058053087076814 0 0 0
29 1 8.937276307248595 12.98542346515394 2.712568728668487 0 0 0
61 1 8.923360507448987 11.875087754532881 1.251963509885395 0 0 0
157 1 7.510027464091221 10.942082220418557 1.983241032483708 0 0 0
189 1 7.526056631367013 12.059701878153176 3.4343997890370224 0 0 0
253 1 8.185835549715511 10.392389284864374 3.55770897766915 0 0 0
285 1 7.515936793323857 12.632663094816225 1.8409611933684427 0 0 0
477 2 6.596076396324056 10.300434114315433 1.5158341708087264 0 0 0
657 3 5.1964468457918285 11.730310529446223 0.07936889997764748 0 0 0
93 1 9.181031455562195 10.261352281753075 2.017388389369158 0 0 0
125 1 10.180785963975518 11.70267611249743 2.5476600581709588 0 0 0
221 1 9.179490639338413 11.832433412662892 4.087296588785168 0 0 0
317 1 9.884989930941334 10.365776079778032 3.563178796433865 0 0 0
381 2 9.253662444257698 12.047610987890089 0.09948065798061842 0 0 0
413 2 9.540095487343864 9.315732142272982 1.3623570850106501 0 0 0
445 2 11.328620001527206 12.007844745608603 2.3474787430538884 0 0 0
637 2 10.678109263442806 9.607896410453293 4.058053089804934 0 0 0
661 3 11.889120124942954 11.73031043287497 0.07936890738693436 0 0 0
299 1 0.5196968167674852 16.907075494786763 1.6278831732401486 0 0 0
603 2 0.005251046913257975 13.378134268346441 1.3687878711716954 0 0 0
619 2 -0.27342297801456866 16.149195400740854 1.1330088580780278 0 0 0
75 1 1.223655231572188 16.802651447297485 3.17367322378345 0 0 0
139 1 2.8946593852626203 17.483381234883602 3.2078204332475195 0 0 0
235 1 2.2188509306610107 16.933688193204915 1.6333525968402307 0 0 0
347 2 2.6173382998930887 14.130249625261273 2.7787204809023804 0 0 0
395 2 0.8645913015555693 15.857031232629781 3.8287046901499773 0 0 0
459 2 3.8086104258078244 16.84173311047443 3.6752273395195685 0 0 0
555 2 2.853955158998787 16.114678643257943 1.015413932145401 0 0 0
79 1 7.916328735304748 16.80265135015858 3.1736732190875245 0 0 0
239 1 8.911524439249487 16.93368832909505 1.6333527430765662 0 0 0
303 1 7.212370094861506 16.90707520641754 1.6278829549662073 0 0 0
399 2 7.557264627753015 15.857031177039744 3.828704619187413 0 0 0
607 2 6.697924451704243 13.378134239330985 1.368787784254256 0 0 0
623 2 6.419250619504681 16.149195545518634 1.1330087197296743 0 0 0
143 1 9.587332704696626 17.483381252296777 3.207820485957254 0 0 0
351 2 9.310011792056347 14.130249683226914 2.7787203824003717 0 0 0
463 2 10.501283721905859 16.841733129806233 3.6752274743040765 0 0 0
559 2 9.546628702316658 16.11467853615208 1.0154140384347017 0 0 0
107 1 0.22390097066287365 18.24397516197074 2.643401635546352 0 0 0
427 2 -0.9239333057165887 18.549144060878426 2.8435833332327602 0 0 0
11 1 1.467410575611448 19.52672261979137 2.478492909846294 0 0 0
43 1 1.4813264582681192 18.41638687278214 3.939098212994037 0 0 0
171 1 2.8786301725747756 18.601000983107188 1.7566618177531668 0 0 0
203 1 1.2251959981829368 18.373732466052488 1.1037652921673835 0 0 0
267 1 2.8887501931217137 19.173962150399554 3.3501002557222295 0 0 0
331 2 1.0946752234550152 20.67154881207044 2.412341285022743 0 0 0
491 2 3.760277308987048 19.00876336421512 1.0470282853739905 0 0 0
523 2 -11.0949919124078 18.77198692886785 20.488300974897907 0 0 -1
587 2 3.706762568268009 19.919433142007883 3.8222735961110295 0 0 0
15 1 8.160083987177448 19.526722440738247 2.4784930285188347 0 0 0
47 1 8.173999754863345 18.41638678710036 3.9390982066540796 0 0 0
111 1 6.9165743125834656 18.243975098083823 2.6434016428856864 0 0 0
207 1 7.917869418949947 18.37373251498461 1.1037651326837719 0 0 0
335 2 7.787348266787775 20.671548841130452 2.4123414146949473 0 0 0
431 2 5.768740122325675 18.549143933620048 2.8435831860483236 0 0 0
527 2 -4.402318480867858 18.77198696835559 20.488301035359527 0 0 -1
683 3 -6.6154249418589375 17.991212723900375 20.390717899863745 0 0 -1
175 1 9.571303560175046 18.601000936713582 1.7566618096706907 0 0 0
271 1 9.581423502713703 19.173962249293137 3.350100392067996 0 0 0
495 2 10.452950708276708 19.00876336338655 1.0470283039772046 0 0 0
591 2 10.399435831019973 19.919433252703808 3.822273694704962 0 0 0
687 3 0.07724842906998444 17.991212496616168 20.390717973993326 0 0 -1
475 2 -0.09659685994133069 23.383032089787747 1.5158341201387562 0 0 0
27 1 2.2446027269568654 26.068021622731848 2.712568699577542 0 0 0
59 1 2.230687027705184 24.957685971390838 1.2519634818346572 0 0 0
91 1 2.488358234171671 23.343950454483046 2.0173883920436544 0 0 0
123 1 3.488112353651067 24.785274259600403 2.5476600342916336 0 0 0
155 1 0.817354045713429 24.024680268063968 1.9832410199072876 0 0 0
187 1 0.8333831921890069 25.14229999773801 3.434399757727324 0 0 0
219 1 2.4868172701461413 24.915031517691318 4.087296446303579 0 0 0
251 1 1.4931622866170087 23.47498731091945 3.5577089660866363 0 0 0
283 1 0.8232633325944563 25.71526120862289 1.8409612237649502 0 0 0
315 1 3.192316552511625 23.448374545293955 3.5631787041273033 0 0 0
379 2 2.56098896139305 25.130209188300814 0.09948050724413475 0 0 0
411 2 2.847422339254593 22.398330354316162 1.3623570273954946 0 0 0
443 2 4.635946687190097 25.09044308551179 2.347478577994825 0 0 0
635 2 3.9854361719449307 22.690494562509247 4.058053004582104 0 0 0
31 1 8.937276177462092 26.068021681195482 2.712568780769485 0 0 0
63 1 8.92336045448965 24.957685920431267 1.25196347977287 0 0 0
159 1 7.510027403945489 24.024680328325825 1.9832410226838395 0 0 0
191 1 7.526056535744009 25.14230003041203 3.4343997850297003 0 0 0
255 1 8.185835592091292 23.474987249847636 3.5577090256370925 0 0 0
287 1 7.515936728361397 25.71526118956769 1.84096136342989 0 0 0
479 2 6.596076516105683 23.383032126908233 1.5158340953615284 0 0 0
659 3 5.196446882918215 24.812908514227967 0.07936884507212047 0 0 0
95 1 9.181031552823475 23.343950416758386 2.0173884005126643 0 0 0
127 1 10.180786019182161 24.785274328015777 2.5476600447321998 0 0 0
223 1 9.17949058296307 24.91503152856197 4.087296659038423 0 0 0
319 1 9.884990080541073 23.448374232910144 3.56317881173048 0 0 0
383 2 9.253662332615457 25.13020910315946 0.0994805763207146 0 0 0
415 2 9.54009559952199 22.398330394828584 1.3623570445834448 0 0 0
447 2 11.328620008666457 25.090442998625537 2.347478677029322 0 0 0
639 2 10.678109351903684 22.690494641035194 4.058052905965858 0 0 0
663 3 11.889120198801153 24.812908586607513 0.07936895258532806 0 0 0
433 2 -3.9466461509102877 1.1569570846500912 7.970218949890801 0 0 0
17 1 -1.555302306437183 0.17937864242805235 7.60512893444695 0 0 0
113 1 -2.798811920718457 1.4621259579639567 7.77003752496509 0 0 0
177 1 -0.14408261709081713 1.105100237383053 6.883297832920239 0 0 0
209 1 -1.7975167807497878 1.3323687403840778 6.230401054459619 0 0 0
241 1 -0.8038618380491434 2.7724129059747007 6.7599886565068745 0 0 0
305 1 -2.5030158684181267 2.7990256391384625 6.754519076688522 0 0 0
529 2 -2.0268525557430896 0.9341142928576224 5.108392704217201 0 0 0
561 2 -0.16875748871671623 3.591422602791784 6.142050099803529 0 0 0
625 2 -3.2961357016279 3.5569056661930607 6.25964459922324 0 0 0
117 1 3.8938614065533037 1.4621260107399077 7.770037617982676 0 0 0
213 1 4.895156736121041 1.3323687268183446 6.230400988571245 0 0 0
309 1 4.189657246519668 2.7990259476563795 6.754518922170289 0 0 0
437 2 2.7460273546431124 1.1569570835658451 7.970218980836434 0 0 0
497 2 0.7375645868032166 0.6973378925322878 6.173664489056521 0 0 0
533 2 4.665820814686513 0.9341143373021972 5.108392754572215 0 0 0
629 2 3.39653778574575 3.556905593233775 6.259644699411143 0 0 0
689 3 2.4527141140398947 1.7148885271761936 5.010809723318101 0 0 0
21 1 5.1373711628970975 0.17937859225157662 7.605128884981446 0 0 0
181 1 6.548590808289904 1.10510023331448 6.883297815169 0 0 0
245 1 5.8888116165312265 2.772413013319539 6.759988674597914 0 0 0
501 2 7.430238009640132 0.6973380291676239 6.17366431147534 0 0 0
565 2 6.523915857204912 3.5914226108882765 6.142050053800058 0 0 0
693 3 9.145387718550126 1.7148887268370954 5.010809688970787 0 0 0
1 1 -0.778110052715606 6.720677679882299 7.839204944209298 0 0 0
33 1 -0.7920258379373775 7.831013335477296 6.378599543341294 0 0 0
97 1 0.465399573306573 8.00342508670111 7.674296141990971 0 0 0
257 1 -2.1994496120377978 7.073437905570093 6.967597471714044 0 0 0
321 2 -0.4053744105672821 5.575851437970066 7.905356577343575 0 0 0
353 2 -0.4617239507769142 7.658490009177525 5.226116790294825 0 0 0
577 2 -3.017461953489381 6.327966822226033 6.495424134994049 0 0 0
641 3 -1.4844330560563046 5.189011291238836 5.11169285682404 0 0 0
261 1 4.493223866949838 7.073438000719765 6.967597515907025 0 0 0
361 2 1.151024567931508 5.5063117522129215 5.091581126856289 0 0 0
417 2 1.6132337548780815 7.6982563194078235 7.474114707771588 0 0 0
581 2 3.675211475414773 6.327966927193885 6.495424009069816 0 0 0
649 3 2.1737336040612867 7.975790746378255 5.206004820179054 0 0 0
5 1 5.914563325460676 6.720677678272965 7.8392049416650025 0 0 0
37 1 5.900647549733612 7.831013283832318 6.378599581249019 0 0 0
101 1 7.158073058602351 8.00342508083945 7.674296282451581 0 0 0
325 2 6.2872989913142945 5.575851442214137 7.905356561077087 0 0 0
357 2 6.23094953546489 7.658490123676322 5.226116795861234 0 0 0
365 2 7.843697959751986 5.506311698713023 5.0915810731185385 0 0 0
421 2 8.305907168612922 7.698256391386634 7.474114766622926 0 0 0
645 3 5.208240344847896 5.1890112686909475 5.111692787336413 0 0 0
653 3 8.866406865025724 7.975790660260983 5.206005035087263 0 0 0
65 1 -0.5343548011500667 9.444748821814832 7.144024389521858 0 0 0
129 1 -2.2053588097118424 8.764018852850954 7.109877065144079 0 0 0
337 2 -1.9280378247971481 12.11715051152097 7.5389771590569445 0 0 0
385 2 -0.17529085723420043 10.390368814772895 6.488992917817547 0 0 0
449 2 -3.1193099033966374 9.40566697203576 6.642470193247694 0 0 0
505 2 -0.04826400669763317 12.46746422667477 4.144033133777639 0 0 0
697 3 -1.7634137381116952 11.449913513975856 5.306887822529565 0 0 0
133 1 4.487314558435263 8.764018903311653 7.109877163183421 0 0 0
341 2 4.764635641139193 12.117150561613299 7.538977197219298 0 0 0
453 2 3.5733635954189205 9.405667089072095 6.6424701714808645 0 0 0
537 2 2.7161531029929944 12.230687739363162 5.209304917014295 0 0 0
569 2 0.8580579590457194 9.573379452509364 4.175647503745131 0 0 0
69 1 6.1583185904008415 9.444748851282947 7.144024457464121 0 0 0
389 2 6.517382639512422 10.390368889786963 6.4889930624553 0 0 0
509 2 6.644409350463374 12.467464270004715 4.144033122007088 0 0 0
573 2 7.550731346930721 9.573379615124503 4.175647607032939 0 0 0
701 3 4.9292598546697 11.44991337330349 5.306887994277283 0 0 0
541 2 9.408826581552145 12.230687803806441 5.209304778505351 0 0 0
435 2 -3.946646226567754 14.2395553064866 7.970218892816881 0 0 0
19 1 -1.5553022861811137 13.261976831317828 7.605128789810017 0 0 0
115 1 -2.7988119118172015 14.544724261787128 7.770037368255954 0 0 0
179 1 -0.14408261080209514 14.187698463703088 6.883297698097281 0 0 0
211 1 -1.7975167955413816 14.414966992916282 6.230401079240545 0 0 0
243 1 -0.8038616877191296 15.855011116495044 6.7599887556391955 0 0 0
307 1 -2.5030160859220865 15.881624092687147 6.75451901741052 0 0 0
531 2 -2.0268526855217472 14.016712601712209 5.108392651463017 0 0 0
563 2 -0.1687574254460986 16.674020820148343 6.142050154667662 0 0 0
627 2 -3.2961355091338023 16.639504125993277 6.259644764243506 0 0 0
119 1 3.8938612368770706 14.544724132000148 7.770037575812804 0 0 0
215 1 4.895156625038901 14.414966999994414 6.230400993584012 0 0 0
311 1 4.189657224120151 15.881624196174162 6.754518957672225 0 0 0
439 2 2.746027295455279 14.239555312017913 7.97021893851039 0 0 0
499 2 0.7375645383005245 13.779936092199934 6.1736643466453325 0 0 0
535 2 4.665820764134042 14.01671262672456 5.108392795658536 0 0 0
631 2 3.3965377844092415 16.63950393957457 6.259644767967556 0 0 0
691 3 2.4527141514230966 14.797486913737963 5.010809704142055 0 0 0
23 1 5.137371108187984 13.261976871222474 7.605128865664275 0 0 0
183 1 6.548590777910578 14.18769849634657 6.883297749986452 0 0 0
247 1 5.888811662549845 15.855011302044364 6.759988741501697 0 0 0
503 2 7.430237971580488 13.779936307107068 6.173664311999926 0 0 0
567 2 6.523915890072582 16.67402088285509 6.142050255626365 0 0 0
695 3 9.14538769666446 14.797487036459406 5.01080967168303 0 0 0
3 1 -0.7781100161669907 19.803275966599564 7.839204913039527 0 0 0
35 1 -0.7920258688670536 20.913611648354866 6.378599690575701 0 0 0
99 1 0.4653996595948642 21.086023426604676 7.674296156649523 0 0 0
259 1 -2.1994495502103337 20.15603636935224 6.9675974338547775 0 0 0
323 2 -0.40537447292125117 18.6584497623551 7.905356580343689 0 0 0
355 2 -0.4617239557262742 20.741088386228533 5.226116779384542 0 0 0
579 2 -3.0174620157918355 19.41056513828492 6.495424253122823 0 0 0
643 3 -1.484433284489282 18.271609455627857 5.111693023731278 0 0 0
263 1 4.493224002556963 20.15603638720104 6.967597492630965 0 0 0
363 2 1.1510246737344256 18.588910054758294 5.09158105886269 0 0 0
419 2 1.6132337154660799 20.78085459706795 7.474114787268202 0 0 0
583 2 3.6752114690582323 19.410565219052483 6.4954241069686045 0 0 0
651 3 2.1737337316861436 21.058388881602045 5.206004836319852 0 0 0
7 1 5.914563356023514 19.80327606782859 7.839204933637865 0 0 0
39 1 5.900647524854954 20.913611625339524 6.378599761673957 0 0 0
103 1 7.158073075025263 21.08602336203805 7.674296262280449 0 0 0
327 2 6.287298861615572 18.658449742313355 7.905356616983991 0 0 0
359 2 6.230949441606351 20.741088376647685 5.226116707038202 0 0 0
367 2 7.843697948643978 18.588909894275233 5.091581150281662 0 0 0
423 2 8.305907275497802 20.780854469019694 7.474114826147939 0 0 0
647 3 5.208240279946726 18.271609492445478 5.111692810479612 0 0 0
655 3 8.866406824441285 21.05838878324104 5.2060049315548875 0 0 0
67 1 -0.5343547701047044 22.527347153480214 7.144024441281269 0 0 0
131 1 -2.2053587815593994 21.84661722397755 7.1098771404651435 0 0 0
339 2 -1.9280377829093194 25.19974863027298 7.538977270803522 0 0 0
387 2 -0.1752907643103123 23.472967220107265 6.488992963302913 0 0 0
451 2 -3.1193098644302557 22.48826533258863 6.642470129547834 0 0 0
507 2 -0.04826410780855592 25.5500623303049 4.144033342760397 0 0 0
699 3 -1.7634137119670144 24.532511538025815 5.3068878248624225 0 0 0
135 1 4.487314705475308 21.84661722888615 7.109877141760092 0 0 0
343 2 4.764635555575678 25.19974863581023 7.538977326409173 0 0 0
455 2 3.5733635736056693 22.48826532450326 6.642470186089762 0 0 0
539 2 2.716153094654515 25.31328604232401 5.2093048036133505 0 0 0
571 2 0.8580581404081022 22.65597762662467 4.17564754023798 0 0 0
71 1 6.15831874665569 22.527347117781492 7.144024530610296 0 0 0
391 2 6.51738276827517 23.47296717685204 6.488992980510418 0 0 0
511 2 6.644409293089455 25.550062328974096 4.144033243304834 0 0 0
575 2 7.5507314250435895 22.655977675502108 4.175647532712508 0 0 0
703 3 4.92925969907372 24.53251161402777 5.306888040845067 0 0 0
543 2 9.408826447354853 25.3132859078908 5.209304880533518 0 0 0
234 1 -3.826574479065848 3.851089996327005 11.886624536498125 0 0 0
298 1 -5.5257288503878526 3.8244769405681973 11.881154854611118 0 0 0
602 2 -6.04017480808763 0.2955360526372703 11.622059912363964 0 0 0
618 2 -6.318848287889751 3.066597108217695 11.386280697505704 0 0 0
665 3 -4.507146029226873 1.4344918621006346 10.238328723297 0 0 0
49 1 -1.541386609522744 1.2897142907752335 9.065734056187354 0 0 0
81 1 -1.799057675964577 2.903449717586974 8.30030919939537 0 0 0
145 1 -0.12805362210680246 2.2227198744621552 8.334456568540066 0 0 0
273 1 -0.13396271402714308 0.5321389526203051 8.476736431584357 0 0 0
369 2 -1.871688513697864 1.1171910110902294 10.218217037864578 0 0 0
401 2 -2.158121698254212 3.8490699232323347 8.95534054836293 0 0 0
554 2 -3.1914702296127913 3.032080394972402 11.26868592960405 0 0 0
622 2 0.37382490713673944 3.0665971439324218 11.386280824180318 0 0 0
85 1 4.893615749382571 2.903449795131046 8.300309174896455 0 0 0
238 1 2.8660988126487514 3.851090051326123 11.88662460686512 0 0 0
302 1 1.1669445364364406 3.8244769841177133 11.88115500606179 0 0 0
373 2 4.8209848822613806 1.117191115114094 10.218216999845135 0 0 0
405 2 4.53455172285386 3.8490699919005635 8.955340522944155 0 0 0
465 2 0.7858973986908544 2.8643681285904283 8.80186353327749 0 0 0
558 2 3.501203050140823 3.0320804229531397 11.268685918320525 0 0 0
606 2 0.6524984727700098 0.2955359834672972 11.6220600291364 0 0 0
669 3 2.185527390897031 1.4344916905215368 10.23832884664851 0 0 0
53 1 5.151286871244163 1.28971440631443 9.065734193950583 0 0 0
149 1 6.564619834703616 2.222719979006107 8.334456640500823 0 0 0
277 1 6.558710710506976 0.5321390424822945 8.476736388217796 0 0 0
469 2 7.478570834341744 2.8643680865523553 8.801863493293045 0 0 0
202 1 -4.8202296073700595 5.291134240611515 11.357037026720828 0 0 0
522 2 -5.049565676776303 5.689388712844474 10.23502856313424 0 0 0
673 3 -4.7861266076823155 8.256187707118054 10.433523922453924 0 0 0
161 1 -2.1893296457310116 7.646399310239889 8.56103593370355 0 0 0
170 1 -3.1667955321612045 5.518402781325262 12.009933656678818 0 0 0
193 1 -0.5358956140982696 7.873667873209779 9.213932622629219 0 0 0
481 2 -3.070976869878489 7.238637000513674 9.270669465600381 0 0 0
490 2 -2.2851482959519873 5.926165153412688 11.300300044526377 0 0 0
513 2 -0.3065596953132359 7.475413465911185 10.335941021065064 0 0 0
682 3 -0.5699988378014562 4.908614103125809 10.13744577232702 0 0 0
165 1 4.50334373178309 7.646399303693956 8.561035920226677 0 0 0
174 1 3.5258777306995364 5.51840268641054 12.00993372906208 0 0 0
206 1 1.8724436627521865 5.291134214240338 11.357037074599296 0 0 0
485 2 3.62169642762627 7.238637035253978 9.270669492575935 0 0 0
494 2 4.4075249717128 5.92616521938411 11.300300070274943 0 0 0
526 2 1.6431076822153812 5.689388631169833 10.235028807638676 0 0 0
677 3 1.9065468578656328 8.256187925182061 10.433523930684432 0 0 0
197 1 6.156777739126088 7.873667832885089 9.21393277193737 0 0 0
517 2 6.3861136895759305 7.475413479506622 10.335941071874228 0 0 0
686 3 6.122674663792003 4.90861411028173 10.137445805460219 0 0 0
58 1 -3.81473868036759 11.875087792911943 11.505235474767685 0 0 0
154 1 -5.228071660443511 10.94208230420227 12.236513109893659 0 0 0
282 1 -5.222162193372489 12.63266314016225 12.094233371624457 0 0 0
474 2 -6.1420226825969655 10.300434239747585 11.769106194366355 0 0 0
90 1 -3.5570676594748822 10.261352281588541 12.27066042654244 0 0 0
225 1 -1.5295506536218597 9.313711979910142 8.684344914285912 0 0 0
289 1 0.16960368211817525 9.340325050408861 8.68981467458624 0 0 0
378 2 -3.4844367481148812 12.047610891927754 10.352752602055654 0 0 0
410 2 -3.198003695736575 9.315732116909738 11.615628935288349 0 0 0
478 2 0.5506506456156077 10.30043410687404 11.769106242111043 0 0 0
545 2 -2.1646549258049204 10.132721748191326 9.302283519585536 0 0 0
593 2 0.6840496254912156 12.869266113558195 8.948909657268656 0 0 0
658 3 -0.8489792240244305 11.730310484038219 10.33264089074532 0 0 0
62 1 2.8779347089737723 11.875087725823791 11.505235342848685 0 0 0
94 1 3.1356057887055235 10.261352315412385 12.270660412469452 0 0 0
158 1 1.4646017722631677 10.942082179337252 12.236513178118084 0 0 0
286 1 1.470510927307783 12.632663126419379 12.094233366463317 0 0 0
382 2 3.208236459566304 12.047610982727681 10.352752580426914 0 0 0
414 2 3.494669723764194 9.315732117573813 11.615628970346307 0 0 0
549 2 4.528018516588811 10.132721630230833 9.302283581962513 0 0 0
609 2 0.9627231515801484 10.098204910246492 9.184688861960197 0 0 0
229 1 5.16312271254897 9.313711981289599 8.684345090305337 0 0 0
293 1 6.862277128131817 9.340325064406457 8.689814892725817 0 0 0
597 2 7.376722955493086 12.869266130301384 8.948909642678688 0 0 0
613 2 7.655396462538369 10.098204806899906 9.184688967034866 0 0 0
662 3 5.843694306023596 11.730310318588783 10.332640786487499 0 0 0
236 1 -3.826574631872101 16.933688382376932 11.886624477032356 0 0 0
300 1 -5.52572893982751 16.907075390147178 11.881154870487164 0 0 0
604 2 -6.040174612671974 13.378134335633677 11.622059888783154 0 0 0
620 2 -6.318848491488106 16.14919547545525 11.386280651491807 0 0 0
667 3 -4.507145720326221 14.517089698795987 10.238328433502781 0 0 0
51 1 -1.5413865663222341 14.372312489565536 9.065734053804055 0 0 0
83 1 -1.7990575980394965 15.986047884605291 8.30030924384507 0 0 0
147 1 -0.128053537418618 15.30531816718931 8.334456609202755 0 0 0
275 1 -0.13396282053435057 13.614737216267313 8.47673631357153 0 0 0
371 2 -1.8716885422531457 14.199789206617723 10.21821704278375 0 0 0
403 2 -2.1581217117733287 16.931668091807275 8.955340711123746 0 0 0
556 2 -3.1914704055511236 16.114678660567225 11.268685864688011 0 0 0
624 2 0.3738249673486629 16.14919545710769 11.386280877658255 0 0 0
87 1 4.89361573135259 15.986048098033079 8.300309395689844 0 0 0
240 1 2.8660988176192155 16.933688294928974 11.88662455186084 0 0 0
304 1 1.1669443773046777 16.907075208940796 11.881154997718797 0 0 0
375 2 4.820984983762551 14.199789170656029 10.218216986726292 0 0 0
407 2 4.534551703542767 16.931668035488126 8.955340671846233 0 0 0
467 2 0.7858974229140885 15.946966276519257 8.801863613560409 0 0 0
560 2 3.5012029470536787 16.11467873096033 11.26868585103779 0 0 0
608 2 0.6524985932696317 13.378134098444097 11.622060139818517 0 0 0
671 3 2.185527440805173 14.517089709329161 10.238328663744774 0 0 0
55 1 5.151286857764412 14.372312477520722 9.065734069589194 0 0 0
151 1 6.564619869782971 15.305318114282146 8.334456722911096 0 0 0
279 1 6.5587104869326165 13.61473730401608 8.476736327656935 0 0 0
471 2 7.4785707924130564 15.946966125975043 8.801863627297775 0 0 0
204 1 -4.820229724620777 18.37373251320434 11.357036959260945 0 0 0
524 2 -5.049565681212779 18.771986984961856 10.235028734991722 0 0 0
675 3 -4.7861266033035745 21.338785987051246 10.433523938745351 0 0 0
163 1 -2.1893297424204046 20.72899770286024 8.561036077211142 0 0 0
172 1 -3.1667956572368876 18.6010009794331 12.009933649856478 0 0 0
195 1 -0.5358956253865226 20.956266275180614 9.213932753501307 0 0 0
483 2 -3.0709768938563267 20.32123541640607 9.270669521269257 0 0 0
492 2 -2.285148484375392 19.008763432344054 11.300300103237092 0 0 0
515 2 -0.3065597258580044 20.558011833680787 10.335941038112502 0 0 0
684 3 -0.5699988202688977 17.991212336991044 10.137445768184843 0 0 0
167 1 4.503343845757693 20.728997733309434 8.561035947790486 0 0 0
176 1 3.5258777822433296 18.601000982659656 12.00993370734532 0 0 0
208 1 1.872443751071518 18.37373241942802 11.35703707574741 0 0 0
487 2 3.621696480626865 20.32123540832963 9.270669450554038 0 0 0
496 2 4.407524953930426 19.00876337150278 11.300300040972012 0 0 0
528 2 1.6431076807814935 18.771986900161593 10.23502875860174 0 0 0
679 3 1.9065468675859552 21.33878603573212 10.433523904541278 0 0 0
199 1 6.156777799084393 20.956266208811297 9.213932745021332 0 0 0
519 2 6.386113695156834 20.558011790486173 10.33594108053187 0 0 0
688 3 6.122674721533243 17.99121243003594 10.137445821640497 0 0 0
60 1 -3.814738747667921 24.957685893929444 11.505235447023198 0 0 0
156 1 -5.228071488561454 24.024680383179017 12.236513057898922 0 0 0
284 1 -5.222162244703984 25.715261092585383 12.094233233855029 0 0 0
476 2 -6.142022679023938 23.383032153554247 11.769106203753559 0 0 0
92 1 -3.5570675874938527 23.343950479496037 12.270660364078443 0 0 0
227 1 -1.5295506701849 22.396310402919493 8.684345002071495 0 0 0
291 1 0.169603651976606 22.422923425857306 8.689814716715727 0 0 0
380 2 -3.484436851706669 25.130209005658095 10.352752542711364 0 0 0
412 2 -3.1980036152522016 22.398330210572368 11.615628962879184 0 0 0
480 2 0.550650640727746 23.383032037325385 11.769106260786302 0 0 0
547 2 -2.1646550025639124 23.215320076311787 9.302283490112659 0 0 0
595 2 0.6840494828993005 25.95186420065577 8.94890964670377 0 0 0
660 3 -0.8489792277627957 24.812908513430493 10.332640928455044 0 0 0
64 1 2.877934588255472 24.957685928968 11.505235425901091 0 0 0
96 1 3.135605777412318 23.343950518520558 12.270660438767537 0 0 0
160 1 1.4646017228587422 24.02468028946083 12.236513174422303 0 0 0
288 1 1.470510815045659 25.715261264034538 12.094233284449235 0 0 0
384 2 3.2082363974899883 25.13020911274427 10.35275248763286 0 0 0
416 2 3.494669756427719 22.39833039644113 11.615628985791197 0 0 0
551 2 4.5280185070077605 23.21531994544446 9.30228354625093 0 0 0
611 2 0.962723123994834 23.180803204312962 9.184688872810538 0 0 0
231 1 5.163122860772452 22.396310251661266 8.684344996487722 0 0 0
295 1 6.862277171917108 22.422923391765355 8.689814740832801 0 0 0
599 2 7.376722985696453 25.9518643517977 8.948909727926956 0 0 0
615 2 7.655396649125164 23.18080318790409 9.184688977026928 0 0 0
664 3 5.84369420079187 24.81290838026724 10.332640882156335 0 0 0
530 2 -8.072278259373343 0.934114254448628 15.361664554038164 0 0 0
74 1 -4.821770228819861 3.720053222727576 13.426945053556361 0 0 0
394 2 -5.180834310259098 2.774432963772446 14.081976498773889 0 0 0
498 2 -5.307861045290486 0.6973378894911515 16.42693626789156 0 0 0
562 2 -6.214183164732124 3.5914225831277755 16.395321927953333 0 0 0
690 3 -3.592711483752088 1.714888497765382 15.264081581410109 0 0 0
138 1 -3.1507662936293044 4.400783124143288 13.461092392561035 0 0 0
346 2 -3.428087286100881 1.047651585270634 13.031992231483008 0 0 0
458 2 -2.2368151544671284 3.7591349623793935 13.928499254441798 0 0 0
534 2 -1.3796048114645694 0.9341144323587202 15.361664538589304 0 0 0
566 2 0.47849028568733454 3.591422574149733 16.395322171726036 0 0 0
78 1 1.8709030479951667 3.72005313611591 13.426945222361423 0 0 0
142 1 3.5419070913381705 4.40078314617736 13.46109239876146 0 0 0
350 2 3.264585998750904 1.0476517129759957 13.031992175840083 0 0 0
398 2 1.5118391675016363 2.7744329845638447 14.081976609805555 0 0 0
462 2 4.4558582412599685 3.7591349793684623 13.928499309674963 0 0 0
502 2 1.3848121742686108 0.697337934355299 16.426936385384966 0 0 0
694 3 3.0999620559738053 1.7148884821928034 15.264081607081126 0 0 0
10 1 -4.578015060925332 6.444124232004429 12.731764785304602 0 0 0
42 1 -4.56409922492507 5.333788638414831 14.192369949997985 0 0 0
106 1 -5.821524650692365 5.161376817807047 12.896673439106495 0 0 0
330 2 -4.950750827541374 7.588950631361888 12.665613223402648 0 0 0
354 2 -6.507149618602418 7.658490164243352 15.479388546964383 0 0 0
362 2 -4.894401136114883 5.506311829952988 15.344852880141246 0 0 0
426 2 -6.969358992392531 5.46654562592436 13.09685492223756 0 0 0
642 3 -7.529858713617136 5.189011381359053 15.364964598144667 0 0 0
650 3 -3.871692155035053 7.9757907313192895 15.459276846462528 0 0 0
266 1 -3.15667571779452 6.091363880994861 13.603372061521164 0 0 0
358 2 0.18552381972267942 7.658490123757085 15.479388581900473 0 0 0
430 2 -0.2766856288983477 5.466545633487469 13.096855160140787 0 0 0
586 2 -2.3386631388903463 6.8368351087452455 14.075545499679137 0 0 0
646 3 -0.8371855611244032 5.1890110769675735 15.364964881851222 0 0 0
14 1 2.1146581214681057 6.444124307530875 12.73176490427647 0 0 0
46 1 2.1285741060089713 5.333788549478037 14.192369993438334 0 0 0
110 1 0.8711486854496981 5.161376816505774 12.896673550229066 0 0 0
270 1 3.5359976748103574 6.091363904626805 13.60337213757454 0 0 0
334 2 1.7419225346302567 7.588950516401241 12.665613316203908 0 0 0
366 2 1.798272218725645 5.506311723754434 15.344853043165617 0 0 0
590 2 4.354010144674981 6.836835220040283 14.075545557583082 0 0 0
654 3 2.8209813079110195 7.975790617789434 15.45927687435329 0 0 0
26 1 -3.800822752887608 12.985423349996601 12.965840645804168 0 0 0
186 1 -5.212042453276774 12.059701974831043 13.68767180796542 0 0 0
250 1 -4.55226350264589 10.392389151307572 13.810981010335837 0 0 0
506 2 -6.0936896347145995 12.467464438658237 14.397305267403858 0 0 0
570 2 -5.187367741220018 9.57337960270547 14.4289196219274 0 0 0
698 3 -7.808839207737029 11.449913365707186 15.56015951216227 0 0 0
122 1 -2.5573131390049766 11.702675990166698 12.800932049705423 0 0 0
218 1 -3.5586083699652984 11.832433264656192 14.340568519276358 0 0 0
314 1 -2.8531092099450848 10.365776147372017 13.816450653578984 0 0 0
442 2 -1.4094789874324243 12.007844728615279 12.600750596820168 0 0 0
510 2 0.598983807587754 12.46746419777051 14.39730533764973 0 0 0
538 2 -3.3292723900361207 12.230687666344327 15.462576948767326 0 0 0
634 2 -2.0599895670132224 9.607896174598825 14.311324858892519 0 0 0
702 3 -1.1161657619329364 11.44991328197307 15.560159703063855 0 0 0
30 1 2.891850553764184 12.985423402041008 12.965840737898752 0 0 0
126 1 4.135360088682075 11.702675996236925 12.800931973401509 0 0 0
190 1 1.4806308964137416 12.059701897904516 13.687671846547943 0 0 0
222 1 3.134065077466119 11.832433274134075 14.340568381273407 0 0 0
254 1 2.1404099705516058 10.392389121809874 13.810981007567111 0 0 0
318 1 3.8395643492515217 10.365776105734028 13.81645054302203 0 0 0
542 2 3.36340112139364 12.230687737565912 15.462576797412526 0 0 0
574 2 1.5053058305840108 9.573379446678395 14.428919568560932 0 0 0
638 2 4.632683874807873 9.60789639067174 14.311324839130577 0 0 0
446 2 5.283194358561224 12.007844866654361 12.600750448082307 0 0 0
532 2 -8.072278240471269 14.016712568430101 15.36166452878634 0 0 0
76 1 -4.821770373626603 16.802651426948625 13.426945145578053 0 0 0
396 2 -5.180834384190797 15.857031200502602 14.081976477536838 0 0 0
500 2 -5.307861056425789 13.779936127357622 16.42693625762559 0 0 0
564 2 -6.214183097599469 16.674020837607166 16.39532203792013 0 0 0
692 3 -3.592711509740654 14.797486849950644 15.264081554373421 0 0 0
140 1 -3.1507664544654284 17.483381278158255 13.461092358295772 0 0 0
348 2 -3.4280870807590547 14.130249700598581 13.031992260821703 0 0 0
460 2 -2.2368152957782166 16.84173307014899 13.928499331736848 0 0 0
536 2 -1.3796048076108227 14.016712760256683 15.36166448708699 0 0 0
568 2 0.4784902694273563 16.67402082503293 16.3953222181609 0 0 0
80 1 1.870903079017761 16.802651397761636 13.426945192227645 0 0 0
144 1 3.541907077537695 17.483381284837044 13.46109239265546 0 0 0
352 2 3.264586138483953 14.130249680984484 13.031992333680195 0 0 0
400 2 1.511839154380484 15.857031213811574 14.08197653531406 0 0 0
464 2 4.455858127452122 16.84173308405406 13.928499247314553 0 0 0
504 2 1.3848122168879926 13.779936104389176 16.426936247667104 0 0 0
696 3 3.0999618905359694 14.797486720315971 15.26408178832679 0 0 0
12 1 -4.578015162472044 19.526722524562754 12.731764868886726 0 0 0
44 1 -4.564099268713942 18.416386886545283 14.19237003082256 0 0 0
108 1 -5.821524686745808 18.24397510931667 12.896673477443548 0 0 0
332 2 -4.950750754082175 20.671548907636755 12.665613314064329 0 0 0
356 2 -6.5071494465476585 20.741088499962792 15.479388580537014 0 0 0
364 2 -4.894401092469291 18.588910051529062 15.344852985848995 0 0 0
428 2 -6.969359041854357 18.549144015977017 13.09685507649941 0 0 0
644 3 -7.529858778538124 18.271609405927357 15.364964769055117 0 0 0
652 3 -3.8716922096795785 21.05838882141081 15.459276933156582 0 0 0
268 1 -3.156675617993216 19.17396213719923 13.60337218206475 0 0 0
360 2 0.1855238266728159 20.741088419623154 15.479388565825042 0 0 0
432 2 -0.27668551605763847 18.54914396518598 13.096855212531805 0 0 0
588 2 -2.3386631461871414 19.919433252702422 14.075545642921082 0 0 0
648 3 -0.8371856505110062 18.271609229834716 15.364964912262753 0 0 0
16 1 2.114658220138955 19.526722559985384 12.7317648292927 0 0 0
48 1 2.128574196442305 18.41638681482029 14.19237015125608 0 0 0
112 1 0.871148656102759 18.24397513024293 12.896673563347058 0 0 0
272 1 3.535997859324326 19.173962168598432 13.603372120891182 0 0 0
336 2 1.7419226720345384 20.671548863179364 12.665613226461907 0 0 0
368 2 1.7982723509168737 18.588910016966008 15.344853052242494 0 0 0
592 2 4.3540101767428085 19.91943328304517 14.075545413580969 0 0 0
656 3 2.8209812288298814 21.058388890227505 15.45927675748695 0 0 0
28 1 -3.8008228435240428 26.068021548799255 12.965840632772625 0 0 0
188 1 -5.212042425222488 25.142300055907764 13.68767178192045 0 0 0
252 1 -4.552263382478026 23.474987360719254 13.81098096450385 0 0 0
508 2 -6.09368963503642 25.55006239077473 14.397305238931317 0 0 0
572 2 -5.18736764738557 22.65597777413475 14.428919608288837 0 0 0
700 3 -7.8088392433484595 24.53251146641593 15.560159676078198 0 0 0
124 1 -2.5573132435588266 24.78527414474346 12.80093205572624 0 0 0
220 1 -3.55860831881265 24.91503149148136 14.340568403303447 0 0 0
316 1 -2.8531090752963535 23.44837437581805 13.816450616217583 0 0 0
444 2 -1.4094789328310484 25.090442973842915 12.600750580477325 0 0 0
512 2 0.5989837756130716 25.550062347111904 14.397305293696114 0 0 0
540 2 -3.3292724167146344 25.31328598432452 15.462576813276193 0 0 0
636 2 -2.05998952549977 22.690494515782518 14.311324919848065 0 0 0
704 3 -1.1161657826520979 24.53251154452199 15.560159713213961 0 0 0
32 1 2.8918505046019596 26.068021578704844 12.96584070422764 0 0 0
128 1 4.1353600951493545 24.785274245206555 12.800931982077767 0 0 0
192 1 1.4806309415821972 25.142300050218324 13.687671836236255 0 0 0
224 1 3.13406500538639 24.915031519061447 14.340568389181309 0 0 0
256 1 2.140410027720448 23.47498726565672 13.810980989492439 0 0 0
320 1 3.839564301434726 23.448374460387182 13.816450544561055 0 0 0
544 2 3.3634010109286536 25.313286072790085 15.462576836010598 0 0 0
576 2 1.5053058283501604 22.655977776291756 14.428919678944801 0 0 0
640 2 4.632683952265512 22.690494559528428 14.311324689827416 0 0 0
448 2 5.283194313607967 25.090443119152713 12.600750457179078 0 0 0
82 1 -7.8444832036805945 2.903449717624478 18.55358106396729 0 0 0
114 1 -8.844237587043025 1.4621260117759136 18.02330932460893 0 0 0
210 1 -7.8429424330612685 1.3323687485526494 16.483672923568044 0 0 0
306 1 -8.548441603296153 2.7990257444256232 17.007790871264646 0 0 0
370 2 -7.9171141512971515 1.1171910677598464 20.471488858687604 0 0 0
402 2 -8.203547307475656 3.84906987339421 19.208612448380496 0 0 0
434 2 -9.99207193887211 1.1569571704856274 18.22349086717952 0 0 0
626 2 -9.34156129199058 3.556905736860736 16.512916579530668 0 0 0
666 3 -10.552572072212142 1.4344915531853748 20.4916007226369 0 0 0
18 1 -7.60072790936212 0.17937861965834093 17.858400724020402 0 0 0
50 1 -7.586812175361154 1.2897142938124393 19.319006033734503 0 0 0
146 1 -6.173479338272965 2.2227197749485863 18.58772841206009 0 0 0
178 1 -6.1895083274193325 1.1051002051158683 17.136569691934223 0 0 0
242 1 -6.849287363366687 2.7724129120987895 17.01326062123903 0 0 0
274 1 -6.179388421277477 0.5321389030606954 18.73000824262691 0 0 0
466 2 -5.259528078936124 2.864367951706683 19.055135415711305 0 0 0
670 3 -3.8598983977350723 1.4344914581829817 20.491600533545725 0 0 0
22 1 -0.9080548306861185 0.17937848678926066 17.85840063927954 0 0 0
54 1 -0.8941390709171748 1.2897144143430277 19.31900596582883 0 0 0
86 1 -1.1518099433236926 2.903449805940513 18.553581125054173 0 0 0
118 1 -2.1515642065094283 1.4621260929932482 18.023309242944322 0 0 0
150 1 0.5191940235603973 2.2227197870173576 18.587728509312576 0 0 0
182 1 0.5031649770528959 1.1051002151773555 17.136569712569994 0 0 0
214 1 -1.1502690797174728 1.3323688385529433 16.48367280484012 0 0 0
246 1 -0.1566139856761075 2.7724129391493797 17.013260558380104 0 0 0
278 1 0.5132848202373155 0.532138886103477 18.730008243511303 0 0 0
310 1 -1.855768223650482 2.79902590389979 17.007790684434486 0 0 0
374 2 -1.2244409859060172 1.1171911201845395 20.47148884121024 0 0 0
406 2 -1.5108739697855458 3.849069954512553 19.208612320172463 0 0 0
438 2 -3.299398549465859 1.1569573145765006 18.223490688247143 0 0 0
630 2 -2.6488878183720845 3.556905781318389 16.51291640520345 0 0 0
470 2 1.4331450834040553 2.8643679103341584 19.055135553175717 0 0 0
162 1 -8.234755414109003 7.646399307869999 18.814307741939675 0 0 0
258 1 -8.244875174540624 7.073438056333079 17.22086929964707 0 0 0
482 2 -9.116402568884824 7.23863694370353 19.52394129616766 0 0 0
578 2 -9.062887469927043 6.327966900079426 16.748695917363996 0 0 0
674 3 1.2592996467616602 8.25618765224192 0.1802517003758516 0 0 1
2 1 -6.823535652901923 6.7206777159746185 18.09247672370547 0 0 0
34 1 -6.837451563476557 7.831013379161189 16.63187144220697 0 0 0
98 1 -5.580025975938549 8.003425175137359 17.927568059404564 0 0 0
194 1 -6.581321351834615 7.8736678852598745 19.467204578159976 0 0 0
322 2 -6.450800013812624 5.57585151217953 18.1586283735846 0 0 0
418 2 -4.432191870380683 7.698256381836252 17.727386627983233 0 0 0
514 2 5.7388664505432025 7.475413531084192 0.08266863713806621 0 0 1
678 3 7.951973124915742 8.256187609463247 0.1802517782294201 0 0 1
6 1 -0.13086227594918884 6.720677736285951 18.09247679652712 0 0 0
38 1 -0.14477807134390505 7.831013343923778 16.631871455755864 0 0 0
166 1 -1.5420819655143858 7.646399364829878 18.81430782372019 0 0 0
198 1 0.11135216233444692 7.873667996401155 19.46720448380934 0 0 0
262 1 -1.552201874369565 7.073437897226806 17.220869279125203 0 0 0
326 2 0.2418733887495699 5.575851437902719 18.158628575351777 0 0 0
486 2 -2.423729124978592 7.238636975390595 19.523941237550176 0 0 0
518 2 12.431540015278971 7.4754134677665 0.08266874827240264 0 0 1
582 2 -2.370214136181905 6.327966918388987 16.748696034175225 0 0 0
102 1 1.112647281404604 8.003425208839046 17.92756818907226 0 0 0
422 2 2.2604815465440447 7.698256327639632 17.7273866623183 0 0 0
130 1 -8.250784458401673 8.764018911048353 17.363149010339175 0 0 0
338 2 -7.973463506992241 12.11715055032086 17.792248969934892 0 0 0
450 2 -9.164735533831688 9.40566702627926 16.89574193820158 0 0 0
546 2 -8.210080580459294 10.132721697799566 19.5555553621707 0 0 0
66 1 -6.579780488116293 9.444748851863844 17.39729628919515 0 0 0
226 1 -7.574976377013615 9.31371208067034 18.93761686148349 0 0 0
290 1 -5.87582200595012 9.340325165804362 18.94308660367809 0 0 0
386 2 -6.220716481037366 10.390368979388112 16.74226488702175 0 0 0
594 2 -5.361376098868735 12.869265985033183 19.202181457832797 0 0 0
610 2 -5.082702594904754 10.098204930737566 19.43796085038551 0 0 0
70 1 0.11289291499711543 9.444748841102111 17.397296382226777 0 0 0
134 1 -1.5581111354360657 8.764018956145781 17.363149018683707 0 0 0
230 1 -0.8823029330928427 9.31371207118403 18.93761692568303 0 0 0
342 2 -1.2807903546091075 12.117150568453088 17.792248858312806 0 0 0
390 2 0.4719569224840119 10.390369044028096 16.742264892274648 0 0 0
454 2 -2.4720621713733357 9.405667001290439 16.89574199009944 0 0 0
550 2 -1.517407179563397 10.132721749641322 19.55555548854942 0 0 0
294 1 0.816851339738673 9.3403249682412 18.943086591205933 0 0 0
598 2 1.331297025879263 12.869265930546407 19.20218163974953 0 0 0
614 2 1.6099709543319318 10.098204934259151 19.43796086289186 0 0 0
84 1 -7.844483241674499 15.986047919018189 18.55358110269772 0 0 0
116 1 -8.844237582567201 14.54472419453489 18.02330931654113 0 0 0
212 1 -7.842942371472911 14.414967025965753 16.48367280277316 0 0 0
308 1 -8.548441686871238 15.881624131604491 17.007790720882085 0 0 0
372 2 -7.917114122780419 14.199789093519158 20.471488824806574 0 0 0
404 2 -8.203547358244721 16.931668007496175 19.20861256544209 0 0 0
436 2 -9.992071803418906 14.239555393096145 18.22349089261865 0 0 0
628 2 -9.341561211108154 16.6395039638891 16.512916634115903 0 0 0
668 3 -10.552571929910371 14.517089651152723 20.49160062916588 0 0 0
20 1 -7.600727994320616 13.261976819440317 17.858400637728266 0 0 0
52 1 -7.586812242794662 14.372312385664303 19.31900589071479 0 0 0
148 1 -6.173479316795779 15.30531798658039 18.587728475924802 0 0 0
180 1 -6.189508305679878 14.187698404149332 17.136569645815175 0 0 0
244 1 -6.849287375919839 15.85501119646825 17.013260539785716 0 0 0
276 1 -6.179388504895998 13.614737192986446 18.730008065897234 0 0 0
468 2 -5.259528258859526 15.946966190873686 19.0551355255891 0 0 0
672 3 -3.85989850833158 14.517089733658276 20.491600569168465 0 0 0
24 1 -0.9080547187424215 13.26197697340002 17.858400617740944 0 0 0
56 1 -0.8941389460201701 14.372312459949127 19.319005915370106 0 0 0
88 1 -1.151809898701472 15.98604794061931 18.55358111046854 0 0 0
120 1 -2.1515642647757356 14.544724312321872 18.023309272561185 0 0 0
152 1 0.5191939529302805 15.305317966975071 18.58772852475416 0 0 0
184 1 0.5031649966154572 14.18769845826786 17.13656984237661 0 0 0
216 1 -1.1502690173286978 14.414967117001712 16.483672867858868 0 0 0
248 1 -0.1566139538500457 15.855011255117235 17.013260589361188 0 0 0
280 1 0.5132846640576454 13.614737187378267 18.730008096718407 0 0 0
312 1 -1.8557682580472554 15.88162416350504 17.00779082508823 0 0 0
376 2 -1.2244410183429415 14.199789186018988 20.471488818357226 0 0 0
408 2 -1.5108740422381692 16.93166812247816 19.208612555862512 0 0 0
440 2 -3.2993985756960913 14.23955549885218 18.22349069955942 0 0 0
632 2 -2.6488878796967543 16.639504098503597 16.512916512373916 0 0 0
472 2 1.4331451099630965 15.946966051800663 19.05513554101597 0 0 0
164 1 -8.234755443055798 20.728997647226937 18.814307805940437 0 0 0
260 1 -8.244875118304934 20.15603645734774 17.220869204534566 0 0 0
484 2 -9.116402553383692 20.321235367038884 19.52394119195859 0 0 0
580 2 -9.062887531844607 19.41056528651887 16.748695892973068 0 0 0
676 3 1.2592995711436292 21.338786012210157 0.18025185140607913 0 0 1
4 1 -6.823535643689589 19.803275934363523 18.09247676356872 0 0 0
36 1 -6.8374514454131505 20.913611680060445 16.63187153029321 0 0 0
100 1 -5.580026071407727 21.0860233804182 17.92756810332521 0 0 0
196 1 -6.58132131691865 20.956266210334928 19.46720465334838 0 0 0
324 2 -6.450800171381896 18.65844980109126 18.158628511598216 0 0 0
420 2 -4.432191844669859 20.780854717591133 17.727386717867166 0 0 0
516 2 5.738866431689707 20.558011839367428 0.08266870274270277 0 0 1
680 3 7.9519729315701975 21.338785947690766 0.1802520658084636 0 0 1
8 1 -0.13086235686090883 19.80327613949755 18.09247681508409 0 0 0
40 1 -0.14477814098673344 20.913611658087984 16.631871468505473 0 0 0
168 1 -1.5420818777639904 20.72899773776138 18.81430771457305 0 0 0
200 1 0.11135205639661064 20.956266209858356 19.46720445310832 0 0 0
264 1 -1.5522017523247817 20.156036466262677 17.220869355805288 0 0 0
328 2 0.2418732323145805 18.65844977068539 18.158628483191652 0 0 0
488 2 -2.423729233297544 20.321235407673267 19.52394123140126 0 0 0
520 2 12.431539898636686 20.558011786962563 0.08266880133707423 0 0 1
584 2 -2.370214263542683 19.410565255353895 16.74869597097288 0 0 0
104 1 1.112647319135498 21.086023429444662 17.927568093001373 0 0 0
424 2 2.260481566173104 20.780854677998505 17.727386567689365 0 0 0
132 1 -8.250784457746867 21.84661730748817 17.363148979423165 0 0 0
340 2 -7.973463496073362 25.199748622608563 17.79224903085262 0 0 0
452 2 -9.164735377826206 22.48826541302159 16.89574197551357 0 0 0
548 2 -8.210080591315334 23.215320087217155 19.555555402891027 0 0 0
68 1 -6.579780410887166 22.527347159997223 17.397296271541588 0 0 0
228 1 -7.574976318756231 22.39631035605539 18.93761686568252 0 0 0
292 1 -5.875821974920693 22.422923371155303 18.943086739130337 0 0 0
388 2 -6.2207162712987225 23.472967283622864 16.742264911428652 0 0 0
596 2 -5.361376186175649 25.951864059254202 19.20218150295639 0 0 0
612 2 -5.082702424083723 23.18080310287685 19.43796093059599 0 0 0
72 1 0.11289290373070363 22.527347170129797 17.397296364154823 0 0 0
136 1 -1.5581110775658096 21.84661728066016 17.363149026016632 0 0 0
232 1 -0.8823029720485915 22.396310308124516 18.937616804889053 0 0 0
344 2 -1.280790362745218 25.19974867898926 17.792249069803585 0 0 0
392 2 0.4719569964561541 23.47296734469247 16.742264933583186 0 0 0
456 2 -2.472062225265733 22.48826532720856 16.895742032426263 0 0 0
552 2 -1.517407218416785 23.21532003586086 19.555555453283684 0 0 0
296 1 0.8168513881331738 22.4229233975406 18.943086652001945 0 0 0
600 2 1.3312970010183443 25.951864033496506 19.20218154303723 0 0 0
616 2 1.6099709114761152 23.180803086670878 19.437960885667703 0 0 0

Velocities

297 0 0 0
601 0 0 0
617 0 0 0
73 0 0 0
137 0 0 0
233 0 0 0
345 0 0 0
393 0 0 0
457 0 0 0
553 0 0 0
77 0 0 0
237 0 0 0
301 0 0 0
397 0 0 0
605 0 0 0
621 0 0 0
141 0 0 0
349 0 0 0
461 0 0 0
557 0 0 0
105 0 0 0
425 0 0 0
9 0 0 0
41 0 0 0
169 0 0 0
201 0 0 0
265 0 0 0
329 0 0 0
489 0 0 0
521 0 0 0
585 0 0 0
13 0 0 0
45 0 0 0
109 0 0 0
205 0 0 0
333 0 0 0
429 0 0 0
525 0 0 0
681 0 0 0
173 0 0 0
269 0 0 0
493 0 0 0
589 0 0 0
685 0 0 0
473 0 0 0
25 0 0 0
57 0 0 0
89 0 0 0
121 0 0 0
153 0 0 0
185 0 0 0
217 0 0 0
249 0 0 0
281 0 0 0
313 0 0 0
377 0 0 0
409 0 0 0
441 0 0 0
633 0 0 0
29 0 0 0
61 0 0 0
157 0 0 0
189 0 0 0
253 0 0 0
285 0 0 0
477 0 0 0
657 0 0 0
93 0 0 0
125 0 0 0
221 0 0 0
317 0 0 0
381 0 0 0
413 0 0 0
445 0 0 0
637 0 0 0
661 0 0 0
299 0 0 0
603 0 0 0
619 0 0 0
75 0 0 0
139 0 0 0
235 0 0 0
347 0 0 0
395 0 0 0
459 0 0 0
555 0 0 0
79 0 0 0
239 0 0 0
303 0 0 0
399 0 0 0
607 0 0 0
623 0 0 0
143 0 0 0
351 0 0 0
463 0 0 0
559 0 0 0
107 0 0 0
427 0 0 0
11 0 0 0
43 0 0 0
171 0 0 0
203 0 0 0
267 0 0 0
331 0 0 0
491 0 0 0
523 0 0 0
587 0 0 0
15 0 0 0
47 0 0 0
111 0 0 0
207 0 0 0
335 0 0 0
431 0 0 0
527 0 0 0
683 0 0 0
175 0 0 0
271 0 0 0
495 0 0 0
591 0 0 0
687 0 0 0
475 0 0 0
27 0 0 0
59 0 0 0
91 0 0 0
123 0 0 0
155 0 0 0
187 0 0 0
219 0 0 0
251 0 0 0
283 0 0 0
315 0 0 0
379 0 0 0
411 0 0 0
443 0 0 0
635 0 0 0
31 0 0 0
63 0 0 0
159 0 0 0
191 0 0 0
255 0 0 0
287 0 0 0
479 0 0 0
659 0 0 0
95 0 0 0
127 0 0 0
223 0 0 0
319 0 0 0
383 0 0 0
415 0 0 0
447 0 0 0
639 0 0 0
663 0 0 0
433 0 0 0
17 0 0 0
113 0 0 0
177 0 0 0
209 0 0 0
241 0 0 0
305 0 0 0
529 0 0 0
561 0 0 0
625 0 0 0
117 0 0 0
213 0 0 0
309 0 0 0
437 0 0 0
497 0 0 0
533 0 0 0
629 0 0 0
689 0 0 0
21 0 0 0
181 0 0 0
245 0 0 0
501 0 0 0
565 0 0 0
693 0 0 0
1 0 0 0
33 0 0 0
97 0 0 0
257 0 0 0
321 0 0 0
353 0 0 0
577 0 0 0
641 0 0 0
261 0 0 0
361 0 0 0
417 0 0 0
581 0 0 0
649 0 0 0
5 0 0 0
37 0 0 0
101 0 0 0
325 0 0 0
357 0 0 0
365 0 0 0
421 0 0 0
645 0 0 0
653 0 0 0
65 0 0 0
129 0 0 0
337 0 0 0
385 0 0 0
449 0 0 0
505 0 0 0
697 0 0 0
133 0 0 0
341 0 0 0
453 0 0 0
537 0 0 0
569 0 0 0
69 0 0 0
389 0 0 0
509 0 0 0
573 0 0 0
701 0 0 0
541 0 0 0
435 0 0 0
19 0 0 0
115 0 0 0
179 0 0 0
211 0 0 0
243 0 0 0
307 0 0 0
531 0 0 0
563 0 0 0
627 0 0 0
119 0 0 0
215 0 0 0
311 0 0 0
439 0 0 0
499 0 0 0
535 0 0 0
631 0 0 0
691 0 0 0
23 0 0 0
183 0 0 0
247 0 0 0
503 0 0 0
567 0 0 0
695 0 0 0
3 0 0 0
35 0 0 0
99 0 0 0
259 0 0 0
323 0 0 0
355 0 0 0
579 0 0 0
643 0 0 0
263 0 0 0
363 0 0 0
419 0 0 0
583 0 0 0
651 0 0 0
7 0 0 0
39 0 0 0
103 0 0 0
327 0 0 0
359 0 0 0
367 0 0 0
423 0 0 0
647 0 0 0
655 0 0 0
67 0 0 0
131 0 0 0
339 0 0 0
387 0 0 0
451 0 0 0
507 0 0 0
699 0 0 0
135 0 0 0
343 0 0 0
455 0 0 0
539 0 0 0
571 0 0 0
71 0 0 0
391 0 0 0
511 0 0 0
575 0 0 0
703 0 0 0
543 0 0 0
234 0 0 0
298 0 0 0
602 0 0 0
618 0 0 0
665 0 0 0
49 0 0 0
81 0 0 0
145 0 0 0
273 0 0 0
369 0 0 0
401 0 0 0
554 0 0 0
622 0 0 0
85 0 0 0
238 0 0 0
302 0 0 0
373 0 0 0
405 0 0 0
465 0 0 0
558 0 0 0
606 0 0 0
669 0 0 0
53 0 0 0
149 0 0 0
277 0 0 0
469 0 0 0
202 0 0 0
522 0 0 0
673 0 0 0
161 0 0 0
170 0 0 0
193 0 0 0
481 0 0 0
490 0 0 0
513 0 0 0
682 0 0 0
165 0 0 0
174 0 0 0
206 0 0 0
485 0 0 0
494 0 0 0
526 0 0 0
677 0 0 0
197 0 0 0
517 0 0 0
686 0 0 0
58 0 0 0
154 0 0 0
282 0 0 0
474 0 0 0
90 0 0 0
225 0 0 0
289 0 0 0
378 0 0 0
410 0 0 0
478 0 0 0
545 0 0 0
593 0 0 0
658 0 0 0
62 0 0 0
94 0 0 0
158 0 0 0
286 0 0 0
382 0 0 0
414 0 0 0
549 0 0 0
609 0 0 0
229 0 0 0
293 0 0 0
597 0 0 0
613 0 0 0
662 0 0 0
236 0 0 0
300 0 0 0
604 0 0 0
620 0 0 0
667 0 0 0
51 0 0 0
83 0 0 0
147 0 0 0
275 0 0 0
371 0 0 0
403 0 0 0
556 0 0 0
624 0 0 0
87 0 0 0
240 0 0 0
304 0 0 0
375 0 0 0
407 0 0 0
467 0 0 0
560 0 0 0
608 0 0 0
671 0 0 0
55 0 0 0
151 0 0 0
279 0 0 0
471 0 0 0
204 0 0 0
524 0 0 0
675 0 0 0
163 0 0 0
172 0 0 0
195 0 0 0
483 0 0 0
492 0 0 0
515 0 0 0
684 0 0 0
167 0 0 0
176 0 0 0
208 0 0 0
487 0 0 0
496 0 0 0
528 0 0 0
679 0 0 0
199 0 0 0
519 0 0 0
688 0 0 0
60 0 0 0
156 0 0 0
284 0 0 0
476 0 0 0
92 0 0 0
227 0 0 0
291 0 0 0
380 0 0 0
412 0 0 0
480 0 0 0
547 0 0 0
595 0 0 0
660 0 0 0
64 0 0 0
96 0 0 0
160 0 0 0
288 0 0 0
384 0 0 0
416 0 0 0
551 0 0 0
611 0 0 0
231 0 0 0
295 0 0 0
599 0 0 0
615 0 0 0
664 0 0 0
530 0 0 0
74 0 0 0
394 0 0 0
498 0 0 0
562 0 0 0
690 0 0 0
138 0 0 0
346 0 0 0
458 0 0 0
534 0 0 0
566 0 0 0
78 0 0 0
142 0 0 0
350 0 0 0
398 0 0 0
462 0 0 0
502 0 0 0
694 0 0 0
10 0 0 0
42 0 0 0
106 0 0 0
330 0 0 0
354 0 0 0
362 0 0 0
426 0 0 0
642 0 0 0
650 0 0 0
266 0 0 0
358 0 0 0
430 0 0 0
586 0 0 0
646 0 0 0
14 0 0 0
46 0 0 0
110 0 0 0
270 0 0 0
334 0 0 0
366 0 0 0
590 0 0 0
654 0 0 0
26 0 0 0
186 0 0 0
250 0 0 0
506 0 0 0
570 0 0 0
698 0 0 0
122 0 0 0
218 0 0 0
314 0 0 0
442 0 0 0
510 0 0 0
538 0 0 0
634 0 0 0
702 0 0 0
30 0 0 0
126 0 0 0
190 0 0 0
222 0 0 0
254 0 0 0
318 0 0 0
542 0 0 0
574 0 0 0
638 0 0 0
446 0 0 0
532 0 0 0
76 0 0 0
396 0 0 0
500 0 0 0
564 0 0 0
692 0 0 0
140 0 0 0
348 0 0 0
460 0 0 0
536 0 0 0
568 0 0 0
80 0 0 0
144 0 0 0
352 0 0 0
400 0 0 0
464 0 0 0
504 0 0 0
696 0 0 0
12 0 0 0
44 0 0 0
108 0 0 0
332 0 0 0
356 0 0 0
364 0 0 0
428 0 0 0
644 0 0 0
652 0 0 0
268 0 0 0
360 0 0 0
432 0 0 0
588 0 0 0
648 0 0 0
16 0 0 0
48 0 0 0
112 0 0 0
272 0 0 0
336 0 0 0
368 0 0 0
592 0 0 0
656 0 0 0
28 0 0 0
188 0 0 0
252 0 0 0
508 0 0 0
572 0 0 0
700 0 0 0
124 0 0 0
220 0 0 0
316 0 0 0
444 0 0 0
512 0 0 0
540 0 0 0
636 0 0 0
704 0 0 0
32 0 0 0
128 0 0 0
192 0 0 0
224 0 0 0
256 0 0 0
320 0 0 0
544 0 0 0
576 0 0 0
640 0 0 0
448 0 0 0
82 0 0 0
114 0 0 0
210 0 0 0
306 0 0 0
370 0 0 0
402 0 0 0
434 0 0 0
626 0 0 0
666 0 0 0
18 0 0 0
50 0 0 0
146 0 0 0
178 0 0 0
242 0 0 0
274 0 0 0
466 0 0 0
670 0 0 0
22 0 0 0
54 0 0 0
86 0 0 0
118 0 0 0
150 0 0 0
182 0 0 0
214 0 0 0
246 0 0 0
278 0 0 0
310 0 0 0
374 0 0 0
406 0 0 0
438 0 0 0
630 0 0 0
470 0 0 0
162 0 0 0
258 0 0 0
482 0 0 0
578 0 0 0
674 0 0 0
2 0 0 0
34 0 0 0
98 0 0 0
194 0 0 0
322 0 0 0
418 0 0 0
514 0 0 0
678 0 0 0
6 0 0 0
38 0 0 0
166 0 0 0
198 0 0 0
262 0 0 0
326 0 0 0
486 0 0 0
518 0 0 0
582 0 0 0
102 0 0 0
422 0 0 0
130 0 0 0
338 0 0 0
450 0 0 0
546 0 0 0
66 0 0 0
226 0 0 0
290 0 0 0
386 0 0 0
594 0 0 0
610 0 0 0
70 0 0 0
134 0 0 0
230 0 0 0
342 0 0 0
390 0 0 0
454 0 0 0
550 0 0 0
294 0 0 0
598 0 0 0
614 0 0 0
84 0 0 0
116 0 0 0
212 0 0 0
308 0 0 0
372 0 0 0
404 0 0 0
436 0 0 0
628 0 0 0
668 0 0 0
20 0 0 0
52 0 0 0
148 0 0 0
180 0 0 0
244 0 0 0
276 0 0 0
468 0 0 0
672 0 0 0
24 0 0 0
56 0 0 0
88 0 0 0
120 0 0 0
152 0 0 0
184 0 0 0
216 0 0 0
248 0 0 0
280 0 0 0
312 0 0 0
376 0 0 0
408 0 0 0
440 0 0 0
632 0 0 0
472 0 0 0
164 0 0 0
260 0 0 0
484 0 0 0
580 0 0 0
676 0 0 0
4 0 0 0
36 0 0 0
100 0 0 0
196 0 0 0
324 0 0 0
420 0 0 0
516 0 0 0
680 0 0 0
8 0 0 0
40 0 0 0
168 0 0 0
200 0 0 0
264 0 0 0
328 0 0 0
488 0 0 0
520 0 0 0
584 0 0 0
104 0 0 0
424 0 0 0
132 0 0 0
340 0 0 0
452 0 0 0
548 0 0 0
68 0 0 0
228 0 0 0
292 0 0 0
388 0 0 0
596 0 0 0
612 0 0 0
72 0 0 0
136 0 0 0
232 0 0 0
344 0 0 0
392 0 0 0
456 0 0 0
552 0 0 0
296 0 0 0
600 0 0 0
616 0 0 0
